(set-info :status sat) ; swine result
(set-logic ALL)
(declare-fun i1 () Int)
(declare-fun it787 () Int)
(declare-fun it788 () Int)
(declare-fun it15 () Int)
(declare-fun it14 () Int)
(declare-fun it789 () Int)
(declare-fun it13 () Int)
(declare-fun it790 () Int)
(declare-fun bt841 () Bool)
(declare-fun bt842 () Bool)
(declare-fun bt843 () Bool)
(declare-fun bt844 () Bool)
(declare-fun it17 () Int)
(declare-fun it16 () Int)
(declare-fun it18 () Int)
(declare-fun bt25 () Bool)
(declare-fun bt28 () Bool)
(declare-fun bt26 () Bool)
(declare-fun bt27 () Bool)
(declare-fun it796 () Int)
(declare-fun it797 () Int)
(declare-fun it798 () Int)
(declare-fun it799 () Int)
(declare-fun bt845 () Bool)
(declare-fun bt846 () Bool)
(declare-fun bt847 () Bool)
(declare-fun bt848 () Bool)
(declare-fun it155 () Int)
(declare-fun it1009 () Int)
(declare-fun it1010 () Int)
(declare-fun it1011 () Int)
(declare-fun it1012 () Int)
(declare-fun bt1077 () Bool)
(declare-fun bt1078 () Bool)
(declare-fun bt1079 () Bool)
(declare-fun bt1080 () Bool)
(declare-fun bt849 () Bool)
(declare-fun bt851 () Bool)
(declare-fun it802 () Int)
(declare-fun bt852 () Bool)
(declare-fun it800 () Int)
(declare-fun bt850 () Bool)
(declare-fun it801 () Int)
(declare-fun it1015 () Int)
(declare-fun it1016 () Int)
(declare-fun it1017 () Int)
(declare-fun it1018 () Int)
(declare-fun bt1081 () Bool)
(declare-fun bt1082 () Bool)
(declare-fun bt1083 () Bool)
(declare-fun bt1084 () Bool)
(declare-fun it1020 () Int)
(declare-fun bt1086 () Bool)
(declare-fun bt1085 () Bool)
(declare-fun bt1088 () Bool)
(declare-fun bt1087 () Bool)
(declare-fun it1019 () Int)
(declare-fun it1021 () Int)
(declare-fun it1022 () Int)
(declare-fun it1023 () Int)
(declare-fun it1024 () Int)
(declare-fun it1025 () Int)
(declare-fun bt1089 () Bool)
(declare-fun bt1090 () Bool)
(declare-fun bt1091 () Bool)
(declare-fun bt1092 () Bool)
(declare-fun bt1095 () Bool)
(declare-fun bt1093 () Bool)
(declare-fun it1028 () Int)
(declare-fun bt1096 () Bool)
(declare-fun it1026 () Int)
(declare-fun it1027 () Int)
(declare-fun bt1094 () Bool)
(declare-fun it1036 () Int)
(declare-fun it1037 () Int)
(declare-fun it1038 () Int)
(declare-fun it1039 () Int)
(declare-fun bt1105 () Bool)
(declare-fun bt1106 () Bool)
(declare-fun bt1107 () Bool)
(declare-fun bt1108 () Bool)
(assert (= (+ i1 (- 1)) 0))
(assert (= (+ it787 (- 2)) 0))
(assert (= (+ (* it15 (- 1)) it788) 0))
(assert (= (+ it789 (* it14 (- 1))) 0))
(assert (= (+ it790 (* it13 (- 1))) 0))
(assert (or (not bt841) (and false bt841)))
(assert (or bt842 (and false (not bt842))))
(assert (or (not bt843) (and false bt843)))
(assert (or (not bt844) (and false bt844)))
(assert (and bt27
     (not bt26)
     (not bt28)
     (not bt25)
     (= (+ it18 (- 1)) 0)
     (not bt841)
     (= (+ (* it16 (- 1)) it790) 0)
     bt842
     (not bt844)
     (not bt843)
     (= (+ it789 (* it17 (- 1))) 0)
     (= (+ it787 (- 2)) 0)))
(assert (= (+ it796 (- 2)) 0))
(assert (= (+ (* it18 (- 1)) it797) 0))
(assert (= (+ (* it17 (- 1)) it798) 0))
(assert (= (+ it799 (* it16 (- 1))) 0))
(assert (or (and (not bt27) (not bt845)) (and bt27 bt845)))
(assert (or (and bt28 bt846) (and (not bt28) (not bt846))))
(assert (or (and bt26 bt847) (and (not bt26) (not bt847))))
(assert (or (and bt25 bt848) (and (not bt25) (not bt848))))
(assert (let ((a!1 (+ (+ 0 it799)
              (* (+ 0 it797) (exp 2 (+ it155 (- 1))) (+ 0 (- 1))))))
  (and (> (+ it799 (* it797 (- 1))) 0)
       (not bt847)
       (not bt848)
       (>= (+ it796 (- 2)) 0)
       (> it798 0)
       (not bt846)
       (> a!1 (+ 0 0))
       (>= (+ (* it796 (- 1)) 2) 0)
       (>= (+ it155 (- 1)) 0)
       bt845)))
(assert (= (+ it1009 (* it796 (- 1))) 0))
(assert (= (+ (+ 0 it1010) (* (exp 2 it155) (+ 0 it797) (+ 0 (- 1))))
   (+ 0 0)))
(assert (= (+ it1011 (* it798 (- 1))) 0))
(assert (= (+ it1012 (* it799 (- 1))) 0))
(assert (or bt1077 (and false (not bt1077))))
(assert (or (not bt1078) (and false bt1078)))
(assert (or (and false bt1079) (not bt1079)))
(assert (or (and false bt1080) (not bt1080)))
(assert (and (> it1011 0)
     bt1077
     (= (+ it1011 (* it801 (- 1))) 0)
     (= (+ it1009 (- 2)) 0)
     bt850
     (> (+ it1012 (* it1010 (- 1))) 0)
     (= (+ it1010 (* it800 (- 1))) 0)
     (not bt852)
     (= (+ it1012 (* it802 (- 1))) 0)
     (not bt1079)
     (not bt851)
     (not bt1080)
     (not bt1078)
     bt849))
(assert (= (+ it1015 (- 2)) 0))
(assert (= (+ (* it800 (- 1)) it1016) 0))
(assert (= (+ (* it801 (- 1)) it1017) 0))
(assert (= (+ it1018 (* it802 (- 1))) 0))
(assert (or (and (not bt1081) (not bt850)) (and bt1081 bt850)))
(assert (or (and (not bt1082) (not bt849)) (and bt1082 bt849)))
(assert (or (and (not bt851) (not bt1083)) (and bt851 bt1083)))
(assert (or (and (not bt852) (not bt1084)) (and bt1084 bt852)))
(assert (and (= (+ (* it1021 (- 1)) it1018) 0)
     (= (+ it1015 (- 2)) 0)
     (> it1017 0)
     (= (+ (* it1019 (- 1)) it1016) 0)
     bt1087
     bt1082
     (not bt1084)
     (not bt1088)
     bt1081
     (not bt1085)
     (not bt1086)
     (= (+ (* it1020 (- 1)) it1017) 0)
     (not bt1083)))
(assert (= (+ it1022 (- 2)) 0))
(assert (= (+ (* it1019 (- 1)) it1023) 0))
(assert (= (+ (* it1020 (- 1)) it1024) 0))
(assert (= (+ (* it1021 (- 1)) it1025) 0))
(assert (or (and bt1086 bt1089) (and (not bt1089) (not bt1086))))
(assert (or (and (not bt1090) (not bt1085)) (and bt1085 bt1090)))
(assert (or (and bt1087 bt1091) (and (not bt1091) (not bt1087))))
(assert (or (and bt1088 bt1092) (and (not bt1088) (not bt1092))))
(assert (and (not bt1094)
     (not bt1089)
     (not bt1090)
     bt1091
     (= (+ (* it1027 (- 1)) it1024) 0)
     (= (+ (* it1026 (- 1)) (* it1023 2)) 0)
     (= (+ it1022 (- 2)) 0)
     (not bt1096)
     (= (+ (* it1028 (- 1)) it1025) 0)
     bt1093
     bt1095))
(assert (= (+ it1036 (- 2)) 0))
(assert (= (+ it1037 (* it1026 (- 1))) 0))
(assert (= (+ it1038 (* it1027 (- 1))) 0))
(assert (= (+ (* it1028 (- 1)) it1039) 0))
(assert (or (and bt1105 bt1094) (and (not bt1094) (not bt1105))))
(assert (or (and bt1093 bt1106) (and (not bt1093) (not bt1106))))
(assert (or (and bt1107 bt1095) (and (not bt1107) (not bt1095))))
(assert (or (and (not bt1108) (not bt1096)) (and bt1096 bt1108)))
(check-sat)
